Route #1: 6 30 29 45 27 52
Route #2: 4 54 19 8 46 34
Route #3: 13 57 15 20 60 37 5 48
Route #4: 32 50 25 55 18 24 49 23
Route #5: 56 41 43 42 64 22 62
Route #6: 2 28 61 21 36 47
Route #7: 9 39 31 10 38
Route #8: 53 11 59 14 35
Route #9: 7 58 12 40 44 3
Route #10: 33 1 63 16 51 17 26
Cost 867